<?xml version = "1.0" encoding="UTF-8" standalone="yes"?>
<CPLEXSolution version="1.2">
 <header
   problemName="/blues/gpfs/home/choy/Siplib/experiment/FULL_INSTANCE/DCAP/EV/DCAP_3_3_2_300_EV.mps"
   solutionName="incumbent"
   solutionIndex="-1"
   objectiveValue="1737.1701692155041"
   solutionTypeValue="3"
   solutionTypeString="primal"
   solutionStatusValue="102"
   solutionStatusString="integer optimal, tolerance"
   solutionMethodString="mip"
   primalFeasible="1"
   dualFeasible="0"
   MIPNodes="0"
   MIPIterations="37"
   writeLevel="1"/>
 <quality
   epInt="1.0000000000000001e-05"
   epRHS="9.9999999999999995e-07"
   maxIntInfeas="0"
   maxPrimalInfeas="2.2204460492503131e-16"
   maxX="1.0000000000000002"
   maxSlack="0.98854600000000015"/>
 <linearConstraints>
  <constraint name="CON1" index="0" slack="0.98854600000000015"/>
  <constraint name="CON2" index="1" slack="-2.2204460492503131e-16"/>
  <constraint name="CON3" index="2" slack="-0"/>
  <constraint name="CON4" index="3" slack="0.00021099999999996122"/>
  <constraint name="CON5" index="4" slack="0.0020660000000000123"/>
  <constraint name="CON6" index="5" slack="0.96749999999999992"/>
  <constraint name="CON7" index="6" slack="0.011453999999999853"/>
  <constraint name="CON8" index="7" slack="-0"/>
  <constraint name="CON9" index="8" slack="-0"/>
  <constraint name="CON10" index="9" slack="-0"/>
  <constraint name="CON11" index="10" slack="-0"/>
  <constraint name="CON12" index="11" slack="-0"/>
  <constraint name="CON13" index="12" slack="0"/>
  <constraint name="CON14" index="13" slack="0"/>
  <constraint name="CON15" index="14" slack="0"/>
  <constraint name="CON16" index="15" slack="0"/>
  <constraint name="CON17" index="16" slack="0"/>
  <constraint name="CON18" index="17" slack="0"/>
 </linearConstraints>
 <variables>
  <variable name="x[1,1]" index="0" value="0.011453999999999853"/>
  <variable name="x[1,2]" index="1" value="1.0000000000000002"/>
  <variable name="x[2,1]" index="2" value="0"/>
  <variable name="x[2,2]" index="3" value="0.99978900000000004"/>
  <variable name="x[3,1]" index="4" value="0.99793399999999999"/>
  <variable name="x[3,2]" index="5" value="0.032500000000000084"/>
  <variable name="u[1,1]" index="6" value="1"/>
  <variable name="u[1,2]" index="7" value="1"/>
  <variable name="u[2,1]" index="8" value="0"/>
  <variable name="u[2,2]" index="9" value="1"/>
  <variable name="u[3,1]" index="10" value="1"/>
  <variable name="u[3,2]" index="11" value="1"/>
  <variable name="y[1,1,1]" index="12" value="-0"/>
  <variable name="y[1,1,2]" index="13" value="-0"/>
  <variable name="y[1,2,1]" index="14" value="0"/>
  <variable name="y[1,2,2]" index="15" value="1"/>
  <variable name="y[1,3,1]" index="16" value="0"/>
  <variable name="y[1,3,2]" index="17" value="-0"/>
  <variable name="y[2,1,1]" index="18" value="0"/>
  <variable name="y[2,1,2]" index="19" value="-0"/>
  <variable name="y[2,2,1]" index="20" value="0"/>
  <variable name="y[2,2,2]" index="21" value="0"/>
  <variable name="y[2,3,1]" index="22" value="0"/>
  <variable name="y[2,3,2]" index="23" value="1"/>
  <variable name="y[3,1,1]" index="24" value="1"/>
  <variable name="y[3,1,2]" index="25" value="1"/>
  <variable name="y[3,2,1]" index="26" value="0"/>
  <variable name="y[3,2,2]" index="27" value="-0"/>
  <variable name="y[3,3,1]" index="28" value="0"/>
  <variable name="y[3,3,2]" index="29" value="-0"/>
  <variable name="z[1,1]" index="30" value="-0"/>
  <variable name="z[1,2]" index="31" value="-0"/>
  <variable name="z[2,1]" index="32" value="1"/>
  <variable name="z[2,2]" index="33" value="-0"/>
  <variable name="z[3,1]" index="34" value="1"/>
  <variable name="z[3,2]" index="35" value="-0"/>
 </variables>
</CPLEXSolution>
